; benchmark generated from python API
(set-info :status unknown)
(declare-fun x_days () Int)
(declare-fun y_days () Int)
(assert
 (>= x_days (- 36584)))
(assert
 (<= x_days 36829))
(assert
 (>= y_days (- 36584)))
(assert
 (<= y_days 36829))
(assert
 (= x_days 7990))
(assert
 (let ((?x627 (+ x_days 730179)))
 (let ((?x2610 (mod ?x627 146097)))
 (let ((?x2540 (div ?x2610 36524)))
 (let ((?x1310 (ite (<= 4 ?x2540) 3 ?x2540)))
 (let ((?x3167 (- ?x2610 (* ?x1310 36524))))
 (let ((?x3779 (mod ?x3167 1461)))
 (let ((?x3783 (div ?x3779 365)))
 (let ((?x3793 (ite (<= 4 ?x3783) 3 ?x3783)))
 (let ((?x3170 (+ (+ (* (div ?x627 146097) 400) (* ?x1310 100)) (* (div ?x3167 1461) 4))))
 (let ((?x3356 (+ (+ ?x3170 ?x3793) 1)))
 (let (($x3085 (or (and (= (mod ?x3356 4) 0) (and (distinct (mod ?x3356 100) 0) true)) (= (mod ?x3356 400) 0))))
 (let ((?x3372 (- ?x3779 (* ?x3793 365))))
 (let ((?x3367 (ite $x3085 31 31)))
 (let (($x2792 (>= ?x3372 ?x3367)))
 (let ((?x632 (ite $x2792 (+ (- ?x3372 ?x3367) 1) (+ (- ?x3372 (ite $x3085 0 0)) 1))))
 (let ((?x3370 (ite $x3085 60 59)))
 (let (($x2884 (>= ?x3372 ?x3370)))
 (let ((?x2063 (ite $x3085 91 90)))
 (let (($x1626 (>= ?x3372 ?x2063)))
 (let ((?x1679 (ite $x1626 (+ (- ?x3372 ?x2063) 1) (ite $x2884 (+ (- ?x3372 ?x3370) 1) ?x632))))
 (let ((?x2064 (ite $x3085 121 120)))
 (let (($x721 (>= ?x3372 ?x2064)))
 (let ((?x2632 (ite $x3085 152 151)))
 (let (($x924 (>= ?x3372 ?x2632)))
 (let ((?x1646 (ite $x924 (+ (- ?x3372 ?x2632) 1) (ite $x721 (+ (- ?x3372 ?x2064) 1) ?x1679))))
 (let ((?x3352 (ite $x3085 182 181)))
 (let (($x2721 (>= ?x3372 ?x3352)))
 (let ((?x345 (ite $x3085 213 212)))
 (let (($x3153 (>= ?x3372 ?x345)))
 (let ((?x1278 (ite $x3153 (+ (- ?x3372 ?x345) 1) (ite $x2721 (+ (- ?x3372 ?x3352) 1) ?x1646))))
 (let ((?x3351 (ite $x3085 244 243)))
 (let (($x1134 (>= ?x3372 ?x3351)))
 (let ((?x2274 (ite $x3085 274 273)))
 (let (($x1678 (>= ?x3372 ?x2274)))
 (let ((?x1364 (ite $x1678 (+ (- ?x3372 ?x2274) 1) (ite $x1134 (+ (- ?x3372 ?x3351) 1) ?x1278))))
 (let ((?x3120 (ite $x3085 305 304)))
 (let (($x1435 (>= ?x3372 ?x3120)))
 (let ((?x1713 (ite $x3085 335 334)))
 (let (($x1315 (>= ?x3372 ?x1713)))
 (let ((?x2302 (ite $x1315 (+ (- ?x3372 ?x1713) 1) (ite $x1435 (+ (- ?x3372 ?x3120) 1) ?x1364))))
 (let ((?x2841 (ite $x721 5 (ite $x1626 4 (ite $x2884 3 (ite $x2792 2 1))))))
 (let ((?x1666 (ite $x1134 9 (ite $x3153 8 (ite $x2721 7 (ite $x924 6 ?x2841))))))
 (let ((?x879 (+ (ite $x1315 12 (ite $x1435 11 (ite $x1678 10 ?x1666))) (+ (* 0 12) 13))))
 (let ((?x239 (- ?x879 1)))
 (let ((?x1685 (+ (mod ?x239 12) 1)))
 (let ((?x2186 (ite (or (= ?x1685 4) (= ?x1685 6) (= ?x1685 9) (= ?x1685 11)) 30 31)))
 (let (($x2820 (and (= (mod (+ ?x3356 (+ 0 (div ?x239 12))) 4) 0) (and (distinct (mod (+ ?x3356 (+ 0 (div ?x239 12))) 100) 0) true))))
 (let (($x2744 (or $x2820 (= (mod (+ ?x3356 (+ 0 (div ?x239 12))) 400) 0))))
 (let ((?x2507 (ite (= ?x1685 2) (ite $x2744 29 28) ?x2186)))
 (let ((?x1158 (ite (> 1 ?x2302) 1 (ite (> ?x2302 ?x2507) ?x2507 ?x2302))))
 (let ((?x3317 (ite (> 1 ?x1158) 1 (ite (> ?x1158 ?x2507) ?x2507 ?x1158))))
 (let ((?x2423 (ite (= 2 ?x1685) (ite $x2744 31 31) (ite (= 1 ?x1685) (ite $x2744 0 0) 0))))
 (let ((?x2927 (ite (= 4 ?x1685) (ite $x2744 91 90) (ite (= 3 ?x1685) (ite $x2744 60 59) ?x2423))))
 (let ((?x334 (ite (= 6 ?x1685) (ite $x2744 152 151) (ite (= 5 ?x1685) (ite $x2744 121 120) ?x2927))))
 (let ((?x2761 (ite (= 8 ?x1685) (ite $x2744 213 212) (ite (= 7 ?x1685) (ite $x2744 182 181) ?x334))))
 (let ((?x3011 (ite (= 10 ?x1685) (ite $x2744 274 273) (ite (= 9 ?x1685) (ite $x2744 244 243) ?x2761))))
 (let ((?x2986 (ite (= 12 ?x1685) (ite $x2744 335 334) (ite (= 11 ?x1685) (ite $x2744 305 304) ?x3011))))
 (let ((?x646 (+ (* 365 (- (+ ?x3356 (+ 0 (div ?x239 12))) 1)) (div (- (+ ?x3356 (+ 0 (div ?x239 12))) 1) 4))))
 (let ((?x2066 (+ (- ?x646 (div (- (+ ?x3356 (+ 0 (div ?x239 12))) 1) 100)) (div (- (+ ?x3356 (+ 0 (div ?x239 12))) 1) 400))))
 (let ((?x2878 (+ (+ (- (+ (+ ?x2066 ?x2986) (- ?x3317 1)) 730179) 40) 730179)))
 (let ((?x2870 (mod ?x2878 146097)))
 (let ((?x2895 (div ?x2870 36524)))
 (let ((?x2846 (ite (<= 4 ?x2895) 3 ?x2895)))
 (let ((?x2905 (- ?x2870 (* ?x2846 36524))))
 (let ((?x1384 (mod ?x2905 1461)))
 (let ((?x1052 (div ?x1384 365)))
 (let ((?x2706 (ite (<= 4 ?x1052) 3 ?x1052)))
 (let ((?x2723 (+ (+ (* (div ?x2878 146097) 400) (* ?x2846 100)) (* (div ?x2905 1461) 4))))
 (let ((?x2800 (+ (+ ?x2723 ?x2706) 1)))
 (let (($x3310 (or (and (= (mod ?x2800 4) 0) (and (distinct (mod ?x2800 100) 0) true)) (= (mod ?x2800 400) 0))))
 (let ((?x2351 (- ?x1384 (* ?x2706 365))))
 (let ((?x2383 (ite $x3310 31 31)))
 (let (($x2522 (>= ?x2351 ?x2383)))
 (let ((?x786 (ite $x2522 (+ (- ?x2351 ?x2383) 1) (+ (- ?x2351 (ite $x3310 0 0)) 1))))
 (let ((?x1654 (ite $x3310 60 59)))
 (let (($x3220 (>= ?x2351 ?x1654)))
 (let ((?x2857 (ite $x3310 91 90)))
 (let (($x3334 (>= ?x2351 ?x2857)))
 (let ((?x3298 (ite $x3334 (+ (- ?x2351 ?x2857) 1) (ite $x3220 (+ (- ?x2351 ?x1654) 1) ?x786))))
 (let ((?x3215 (ite $x3310 121 120)))
 (let (($x3131 (>= ?x2351 ?x3215)))
 (let ((?x2853 (ite $x3310 152 151)))
 (let (($x2512 (>= ?x2351 ?x2853)))
 (let ((?x693 (ite $x2512 (+ (- ?x2351 ?x2853) 1) (ite $x3131 (+ (- ?x2351 ?x3215) 1) ?x3298))))
 (let ((?x3200 (ite $x3310 182 181)))
 (let (($x2718 (>= ?x2351 ?x3200)))
 (let ((?x3203 (ite $x3310 213 212)))
 (let (($x3035 (>= ?x2351 ?x3203)))
 (let ((?x2218 (ite $x3035 (+ (- ?x2351 ?x3203) 1) (ite $x2718 (+ (- ?x2351 ?x3200) 1) ?x693))))
 (let ((?x1421 (ite $x3310 244 243)))
 (let (($x3133 (>= ?x2351 ?x1421)))
 (let ((?x2861 (ite $x3310 274 273)))
 (let (($x2702 (>= ?x2351 ?x2861)))
 (let ((?x1644 (ite $x2702 (+ (- ?x2351 ?x2861) 1) (ite $x3133 (+ (- ?x2351 ?x1421) 1) ?x2218))))
 (let ((?x3146 (ite $x3310 305 304)))
 (let (($x3371 (>= ?x2351 ?x3146)))
 (let ((?x3149 (ite $x3310 335 334)))
 (let (($x2804 (>= ?x2351 ?x3149)))
 (let ((?x2355 (ite $x2804 (+ (- ?x2351 ?x3149) 1) (ite $x3371 (+ (- ?x2351 ?x3146) 1) ?x1644))))
 (let (($x1710 (= 40 0)))
 (let (($x2936 (= (mod (ite $x1710 (+ ?x3356 (+ 0 (div ?x239 12))) ?x2800) 400) 0)))
 (let (($x1873 (and (distinct (mod (ite $x1710 (+ ?x3356 (+ 0 (div ?x239 12))) ?x2800) 100) 0) true)))
 (let (($x840 (= (mod (ite $x1710 (+ ?x3356 (+ 0 (div ?x239 12))) ?x2800) 4) 0)))
 (let (($x2730 (or (and $x840 $x1873) $x2936)))
 (let ((?x3188 (ite $x3131 5 (ite $x3334 4 (ite $x3220 3 (ite $x2522 2 1))))))
 (let ((?x3062 (ite $x3133 9 (ite $x3035 8 (ite $x2718 7 (ite $x2512 6 ?x3188))))))
 (let ((?x634 (ite $x2804 12 (ite $x3371 11 (ite $x2702 10 ?x3062)))))
 (let ((?x3121 (ite $x1710 ?x1685 ?x634)))
 (let ((?x1094 (ite (= 2 ?x3121) (ite $x2730 31 31) (ite (= 1 ?x3121) (ite $x2730 0 0) 0))))
 (let ((?x2385 (ite (= 4 ?x3121) (ite $x2730 91 90) (ite (= 3 ?x3121) (ite $x2730 60 59) ?x1094))))
 (let ((?x1884 (ite (= 6 ?x3121) (ite $x2730 152 151) (ite (= 5 ?x3121) (ite $x2730 121 120) ?x2385))))
 (let ((?x1044 (ite (= 8 ?x3121) (ite $x2730 213 212) (ite (= 7 ?x3121) (ite $x2730 182 181) ?x1884))))
 (let ((?x674 (ite (= 10 ?x3121) (ite $x2730 274 273) (ite (= 9 ?x3121) (ite $x2730 244 243) ?x1044))))
 (let ((?x2656 (ite (= 12 ?x3121) (ite $x2730 335 334) (ite (= 11 ?x3121) (ite $x2730 305 304) ?x674))))
 (let ((?x1394 (+ ?x3356 (+ 0 (div ?x239 12)))))
 (let ((?x2458 (ite $x1710 ?x1394 ?x2800)))
 (let ((?x2658 (- ?x2458 1)))
 (let ((?x1954 (+ (- (+ (* 365 ?x2658) (div ?x2658 4)) (div ?x2658 100)) (div ?x2658 400))))
 (= y_days (- (+ (+ ?x1954 ?x2656) (- (ite $x1710 ?x3317 ?x2355) 1)) 730179)))))))))))))))))))))))))))))))))))))))))))))))))))))))))))))))))))))))))))))))))))))))))))))))))))))))))))))))))))))))))
(assert
 (not (= y_days 8395)))
(assert
 (= x_days 7990))
(assert
 (= y_days 8426))
(check-sat)
